1 100 638
0 3 1 1 4 3 5 2 1 0
1
2
0 40.0 50.0 0.0 0.0 0 240
2 25.0 85.0 10.0 20.0 0 191 27 1 0 1 0 0 1 0 0 0 1
3 22.0 75.0 10.0 30.0 0 199 99 0 0 0 0 1 0 0 0 1 0
4 22.0 85.0 10.0 10.0 0 190 69 1 0 0 0 0 0 0 1 0 0
5 20.0 80.0 10.0 40.0 141 171 34 0 1 0 0 0 1 0 0 0 0
6 20.0 85.0 10.0 20.0 0 189 93 0 0 0 0 1 1 1 1 0 0
7 18.0 75.0 10.0 20.0 95 125 92 1 0 0 0 0 0 0 0 0 0
8 15.0 75.0 10.0 20.0 0 194 78 0 1 0 0 1 0 0 0 0 0
9 15.0 80.0 10.0 10.0 91 121 84 0 0 0 0 0 0 0 1 0 0
10 10.0 35.0 10.0 20.0 91 121 54 1 0 0 0 1 0 0 0 0 0
11 10.0 40.0 10.0 30.0 119 149 36 0 0 0 1 0 0 0 0 0 1
12 8.0 40.0 10.0 40.0 59 89 96 0 0 0 1 0 0 1 0 0 0
13 8.0 45.0 10.0 20.0 0 197 52 0 0 0 0 0 1 0 0 0 0
14 5.0 35.0 10.0 10.0 142 172 87 0 1 1 0 1 0 0 0 1 0
15 5.0 45.0 10.0 10.0 35 65 10 0 0 0 0 1 0 1 0 0 0
16 2.0 40.0 10.0 20.0 58 88 83 0 0 0 0 0 1 0 0 0 0
17 0.0 40.0 10.0 20.0 72 102 75 0 0 1 0 0 0 0 0 0 1
18 0.0 45.0 10.0 20.0 149 179 90 0 0 0 1 1 1 0 0 1 0
19 44.0 5.0 10.0 20.0 87 117 17 1 0 0 0 0 0 0 0 0 0
20 42.0 10.0 10.0 40.0 72 102 49 0 1 0 0 0 0 0 1 0 0
21 42.0 15.0 10.0 10.0 122 152 80 1 0 0 0 1 1 0 1 0 0
22 40.0 5.0 10.0 10.0 0 185 75 0 0 1 0 0 0 0 0 0 0
23 40.0 15.0 10.0 40.0 92 122 74 1 1 0 1 0 0 0 1 0 0
24 38.0 5.0 10.0 30.0 65 95 36 0 0 0 0 0 1 0 0 0 0
25 38.0 15.0 10.0 10.0 148 178 29 0 0 0 0 0 0 1 1 0 0
26 35.0 5.0 10.0 20.0 154 184 48 0 1 1 0 1 0 0 0 0 0
27 95.0 30.0 10.0 30.0 0 171 15 0 0 0 0 0 0 0 1 0 0
28 95.0 35.0 10.0 20.0 62 92 94 0 1 0 0 0 0 0 0 1 0
29 92.0 30.0 10.0 10.0 62 92 26 0 1 0 0 0 0 0 0 0 0
30 90.0 35.0 10.0 10.0 67 97 96 1 0 0 0 0 0 0 0 1 0
31 88.0 30.0 10.0 10.0 74 104 76 0 0 0 0 0 0 1 0 0 0
32 88.0 35.0 10.0 20.0 0 179 89 0 0 1 0 0 1 0 0 0 0
33 87.0 30.0 10.0 10.0 131 161 28 0 0 0 0 0 0 0 0 0 1
34 85.0 25.0 10.0 10.0 51 81 86 1 0 0 0 0 0 0 0 0 0
35 85.0 35.0 10.0 30.0 0 182 85 0 0 0 0 0 0 0 0 1 0
36 67.0 85.0 10.0 20.0 139 169 97 0 0 0 1 0 1 0 0 0 0
37 65.0 85.0 10.0 40.0 43 73 27 0 0 0 1 1 0 0 0 0 0
38 65.0 82.0 10.0 10.0 0 189 4 1 1 0 1 1 0 0 0 0 0
39 62.0 80.0 10.0 30.0 75 105 60 0 1 0 1 0 0 0 0 0 0
40 60.0 80.0 10.0 10.0 37 67 66 0 0 1 0 0 0 1 0 0 0
41 60.0 85.0 10.0 30.0 85 115 90 0 1 0 0 0 0 0 0 1 0
42 58.0 75.0 10.0 20.0 92 122 36 0 0 0 0 0 1 0 0 0 0
43 55.0 80.0 10.0 10.0 33 63 85 1 0 1 0 0 0 0 0 0 0
44 55.0 85.0 10.0 20.0 128 158 4 0 0 0 0 0 1 0 0 0 0
45 55.0 82.0 10.0 10.0 64 94 4 0 0 0 0 0 1 1 0 1 0
46 20.0 82.0 10.0 10.0 37 67 24 0 1 0 0 0 0 0 1 0 0
47 18.0 80.0 10.0 10.0 113 143 64 1 0 1 0 0 0 0 0 0 0
48 2.0 45.0 10.0 10.0 45 75 22 0 1 0 0 0 0 1 0 0 1
49 42.0 5.0 10.0 10.0 0 184 49 0 0 1 0 0 0 0 0 0 0
50 42.0 12.0 10.0 10.0 104 134 2 0 0 0 0 1 0 0 0 0 0
51 72.0 35.0 10.0 30.0 0 194 74 0 0 0 1 1 0 1 1 1 1
52 55.0 20.0 10.0 19.0 83 113 82 0 1 0 0 0 1 0 0 1 0
53 25.0 30.0 10.0 3.0 0 205 98 0 0 0 1 0 1 0 0 1 0
54 20.0 50.0 10.0 5.0 91 121 95 1 0 0 0 0 1 1 0 0 1
55 55.0 60.0 10.0 16.0 139 169 52 0 0 1 0 0 0 0 0 0 0
56 30.0 60.0 10.0 16.0 140 170 94 0 0 0 0 0 0 0 0 0 1
57 50.0 35.0 10.0 19.0 130 160 50 0 1 0 0 0 0 0 1 0 1
58 30.0 25.0 10.0 23.0 96 126 92 0 0 0 0 0 1 0 0 0 0
59 15.0 10.0 10.0 20.0 152 182 84 0 0 1 0 0 0 0 1 0 0
60 10.0 20.0 10.0 19.0 0 187 72 0 1 0 0 0 0 1 1 1 0
61 15.0 60.0 10.0 17.0 155 185 22 1 0 0 1 0 0 0 0 1 0
62 45.0 65.0 10.0 9.0 66 96 15 0 0 0 0 0 1 0 0 0 0
63 65.0 35.0 10.0 3.0 52 82 78 0 1 1 1 0 0 0 0 0 0
64 65.0 20.0 10.0 6.0 39 69 36 1 0 0 1 0 0 1 0 1 0
65 45.0 30.0 10.0 17.0 53 83 39 1 0 0 0 1 0 1 0 1 0
66 35.0 40.0 10.0 16.0 11 41 44 0 0 0 0 0 1 1 0 0 0
67 41.0 37.0 10.0 16.0 133 163 45 0 0 0 0 0 0 0 0 1 0
68 64.0 42.0 10.0 9.0 70 100 20 0 0 0 0 1 0 1 0 1 0
69 40.0 60.0 10.0 21.0 144 174 43 0 0 0 1 0 0 1 0 0 0
70 31.0 52.0 10.0 27.0 41 71 28 0 1 0 0 0 0 1 0 0 0
71 35.0 69.0 10.0 23.0 180 210 91 0 1 1 0 0 0 0 0 0 0
72 65.0 55.0 10.0 14.0 65 95 57 0 1 0 0 1 0 0 0 1 1
73 63.0 65.0 10.0 8.0 0 202 10 0 0 0 0 0 0 0 0 0 1
74 2.0 60.0 10.0 5.0 77 107 11 0 0 1 0 0 0 0 0 0 0
75 20.0 20.0 10.0 8.0 141 171 68 0 0 0 0 0 0 0 0 1 0
76 5.0 5.0 10.0 16.0 0 172 8 0 0 1 0 0 0 0 0 0 0
77 60.0 12.0 10.0 31.0 75 105 85 0 1 1 0 0 0 0 0 0 1
78 23.0 3.0 10.0 7.0 150 180 22 0 0 0 0 1 1 0 0 0 0
79 8.0 56.0 10.0 27.0 90 120 50 0 0 0 0 1 0 1 1 0 0
80 6.0 68.0 10.0 30.0 89 119 1 0 0 0 0 0 0 1 0 0 0
81 47.0 47.0 10.0 13.0 192 222 30 0 0 0 1 0 0 0 0 1 0
82 49.0 58.0 10.0 10.0 86 116 56 0 0 0 0 0 0 1 0 0 0
83 27.0 43.0 10.0 9.0 0 215 69 0 0 1 1 0 0 0 0 0 0
84 37.0 31.0 10.0 14.0 0 210 11 1 0 1 0 0 0 1 0 0 0
85 57.0 29.0 10.0 18.0 96 126 37 1 1 1 0 1 1 0 0 0 0
86 63.0 23.0 10.0 2.0 0 194 86 0 0 1 0 0 0 0 1 1 1
87 21.0 24.0 10.0 28.0 87 117 98 0 0 0 0 1 0 0 1 1 0
88 12.0 24.0 10.0 13.0 90 120 50 0 0 0 0 0 1 0 0 0 0
89 24.0 58.0 10.0 19.0 67 97 58 0 0 0 0 0 0 0 0 1 0
90 67.0 5.0 10.0 25.0 144 174 15 0 0 0 0 0 0 0 0 0 1
91 37.0 47.0 10.0 6.0 86 116 78 0 0 0 0 0 1 0 0 0 0
92 49.0 42.0 10.0 13.0 0 217 23 0 1 0 1 0 0 0 0 1 0
93 53.0 43.0 10.0 14.0 14 44 35 0 0 0 0 0 1 0 0 0 0
94 61.0 52.0 10.0 3.0 178 208 25 0 0 0 0 0 1 0 0 0 0
95 57.0 48.0 10.0 23.0 0 212 94 1 0 0 0 1 0 0 0 1 1
96 56.0 37.0 10.0 6.0 0 209 41 0 0 1 0 0 0 0 0 0 0
97 55.0 54.0 10.0 26.0 0 214 23 0 0 1 1 0 0 0 0 1 0
98 4.0 18.0 10.0 35.0 120 150 98 0 0 0 0 1 0 0 0 0 0
99 26.0 52.0 10.0 9.0 0 215 37 1 0 0 0 0 0 0 1 0 0
100 26.0 35.0 10.0 15.0 77 107 93 1 0 0 0 0 0 1 1 0 0
101 31.0 67.0 10.0 3.0 180 210 43 0 0 0 0 1 0 0 0 1 0